NAME: rue_20_2
TYPE: TSP
DIMENSION: 20
EDGE_WEIGHT_TYPE: EUC_2D
NODE_COORD_SECTION
1 91 8
2 16 99
3 96 7
4 29 27
5 91 14
6 10 76
7 21 59
8 76 26
9 23 4
10 72 75
11 35 76
12 97 62
13 41 78
14 86 84
15 91 58
16 27 95
17 84 33
18 17 11
19 63 7
20 17 76
